TOUR_SECTION
1
4
180
45
142
171
59
143
93
56
11
195
6
13
62
88
25
63
104
51
47
123
106
60
163
145
193
147
12
156
191
139
201
84
135
80
110
43
27
157
114
90
46
190
70
69
160
39
169
198
67
17
76
140
71
111
172
124
165
187
58
144
174
158
129
32
28
98
176
77
109
33
164
134
21
105
53
61
50
127
48
113
31
120
65
8
20
199
100
36
40
138
137
78
72
97
175
81
15
30
89
29
75
149
173
87
151
125
74
200
82
170
115
24
44
131
55
26
150
18
68
116
95
7
9
14
154
186
96
91
128
54
168
34
146
86
73
52
10
159
103
108
23
99
3
83
5
161
119
117
188
92
42
64
126
37
194
2
162
57
184
133
189
19
22
167
41
181
183
112
102
16
118
136
130
101
178
121
132
153
49
122
35
179
155
177
166
66
141
94
182
38
85
107
196
185
79
192
148
152
197
-1
EOF